tsp_instances/TSP20/instance117.tsp
NODE_COORD_SECTION
0 120 75
1 41 87
2 100 38
3 11 0
4 126 159
5 67 196
6 72 35
7 112 119
8 26 32
9 104 112
10 136 0
11 174 34
12 33 47
13 7 78
14 77 163
15 113 92
16 84 116
17 160 88
18 5 92
19 122 28
