tsp_instances/TSP20/instance117.opt.tour
TOUR_SECTION
1
16
10
8
5
6
15
17
2
19
14
13
9
4
7
3
20
11
12
18
-1